NAME : ../File/prFile/tspFile/tsp_file26.tsp.456.tour
COMMENT : Length = 456
COMMENT : Found by LKH-3 [Keld Helsgaun] Wed Jun 14 17:47:18 2023
TYPE : TOUR
DIMENSION : 30
TOUR_SECTION
1
12
4
24
10
11
14
9
16
3
15
6
17
13
28
2
27
7
25
18
22
20
29
30
5
21
8
26
19
23
-1
EOF
